certificates/rado_a6_c212_N35.cnf
c Rad2 upper bound instance: x1 + 6*x2 - x3 = 212, interval [1,35]
p cnf 35 216
1 3 35 0
-1 -3 -35 0
2 4 35 0
-2 -4 -35 0
3 5 35 0
-3 -5 -35 0
4 6 35 0
-4 -6 -35 0
5 7 35 0
-5 -7 -35 0
6 8 35 0
-6 -8 -35 0
1 9 34 0
-1 -9 -34 0
7 9 35 0
-7 -9 -35 0
2 10 34 0
-2 -10 -34 0
8 10 35 0
-8 -10 -35 0
3 11 34 0
-3 -11 -34 0
9 11 35 0
-9 -11 -35 0
4 12 34 0
-4 -12 -34 0
10 12 35 0
-10 -12 -35 0
5 13 34 0
-5 -13 -34 0
11 13 35 0
-11 -13 -35 0
6 14 34 0
-6 -14 -34 0
12 14 35 0
-12 -14 -35 0
1 15 33 0
-1 -15 -33 0
7 15 34 0
-7 -15 -34 0
13 15 35 0
-13 -15 -35 0
2 16 33 0
-2 -16 -33 0
8 16 34 0
-8 -16 -34 0
14 16 35 0
-14 -16 -35 0
3 17 33 0
-3 -17 -33 0
9 17 34 0
-9 -17 -34 0
15 17 35 0
-15 -17 -35 0
4 18 33 0
-4 -18 -33 0
10 18 34 0
-10 -18 -34 0
16 18 35 0
-16 -18 -35 0
5 19 33 0
-5 -19 -33 0
11 19 34 0
-11 -19 -34 0
17 19 35 0
-17 -19 -35 0
6 20 33 0
-6 -20 -33 0
12 20 34 0
-12 -20 -34 0
18 20 35 0
-18 -20 -35 0
1 21 32 0
-1 -21 -32 0
7 21 33 0
-7 -21 -33 0
13 21 34 0
-13 -21 -34 0
19 21 35 0
-19 -21 -35 0
2 22 32 0
-2 -22 -32 0
8 22 33 0
-8 -22 -33 0
14 22 34 0
-14 -22 -34 0
20 22 35 0
-20 -22 -35 0
3 23 32 0
-3 -23 -32 0
9 23 33 0
-9 -23 -33 0
15 23 34 0
-15 -23 -34 0
21 23 35 0
-21 -23 -35 0
4 24 32 0
-4 -24 -32 0
10 24 33 0
-10 -24 -33 0
16 24 34 0
-16 -24 -34 0
22 24 35 0
-22 -24 -35 0
5 25 32 0
-5 -25 -32 0
11 25 33 0
-11 -25 -33 0
17 25 34 0
-17 -25 -34 0
23 25 35 0
-23 -25 -35 0
6 26 32 0
-6 -26 -32 0
12 26 33 0
-12 -26 -33 0
18 26 34 0
-18 -26 -34 0
24 26 35 0
-24 -26 -35 0
1 27 31 0
-1 -27 -31 0
7 27 32 0
-7 -27 -32 0
13 27 33 0
-13 -27 -33 0
19 27 34 0
-19 -27 -34 0
25 27 35 0
-25 -27 -35 0
2 28 31 0
-2 -28 -31 0
8 28 32 0
-8 -28 -32 0
14 28 33 0
-14 -28 -33 0
20 28 34 0
-20 -28 -34 0
26 28 35 0
-26 -28 -35 0
3 29 31 0
-3 -29 -31 0
9 29 32 0
-9 -29 -32 0
15 29 33 0
-15 -29 -33 0
21 29 34 0
-21 -29 -34 0
27 29 35 0
-27 -29 -35 0
4 30 31 0
-4 -30 -31 0
10 30 32 0
-10 -30 -32 0
16 30 33 0
-16 -30 -33 0
22 30 34 0
-22 -30 -34 0
28 30 35 0
-28 -30 -35 0
5 31 0
-5 -31 0
11 31 32 0
-11 -31 -32 0
17 31 33 0
-17 -31 -33 0
23 31 34 0
-23 -31 -34 0
29 31 35 0
-29 -31 -35 0
6 31 32 0
-6 -31 -32 0
12 32 0
-12 -32 0
18 32 33 0
-18 -32 -33 0
24 32 34 0
-24 -32 -34 0
30 32 35 0
-30 -32 -35 0
1 30 33 0
-1 -30 -33 0
7 31 33 0
-7 -31 -33 0
13 32 33 0
-13 -32 -33 0
19 33 0
-19 -33 0
25 33 34 0
-25 -33 -34 0
31 33 35 0
-31 -33 -35 0
2 30 34 0
-2 -30 -34 0
8 31 34 0
-8 -31 -34 0
14 32 34 0
-14 -32 -34 0
20 33 34 0
-20 -33 -34 0
26 34 0
-26 -34 0
32 34 35 0
-32 -34 -35 0
3 30 35 0
-3 -30 -35 0
9 31 35 0
-9 -31 -35 0
15 32 35 0
-15 -32 -35 0
21 33 35 0
-21 -33 -35 0
27 34 35 0
-27 -34 -35 0
33 35 0
-33 -35 0
