certificates/rado_a6_c212_N35.drat
-35 0
33 0
-19 0
17 0
21 0
-3 0
-31 0
-7 0
1 0
5 0
30 0
29 0
9 0
-15 0
0
